GLPSOL--GLPK LP/MIP Solver 5.0
Parameter(s) specified in the command line:
 --lp ../modeles/5_229.lp --log 5_229.log
Reading problem data from '../modeles/5_229.lp'...
1166 rows, 2300 columns, 8040 non-zeros
1145 integer variables, all of which are binary
3477 lines were read
GLPK Integer Optimizer 5.0
1166 rows, 2300 columns, 8040 non-zeros
1145 integer variables, all of which are binary
Preprocessing...
1130 constraint coefficient(s) were reduced
1166 rows, 2295 columns, 8035 non-zeros
1145 integer variables, all of which are binary
Scaling...
 A: min|aij| =  7.628e-05  max|aij| =  4.000e+00  ratio =  5.244e+04
GM: min|aij| =  6.608e-02  max|aij| =  1.513e+01  ratio =  2.290e+02
EQ: min|aij| =  4.367e-03  max|aij| =  1.000e+00  ratio =  2.290e+02
2N: min|aij| =  3.906e-03  max|aij| =  1.752e+00  ratio =  4.486e+02
Constructing initial basis...
Size of triangular part is 1166
Solving LP relaxation...
GLPK Simplex Optimizer 5.0
1166 rows, 2295 columns, 8035 non-zeros
      0: obj =   1.000000000e+01 inf =   2.450e+01 (11)
     74: obj =   4.998188406e-01 inf =   0.000e+00 (0)
*   272: obj =  -2.235912832e+00 inf =   2.049e-15 (0)
OPTIMAL LP SOLUTION FOUND
Integer optimization begins...
Long-step dual simplex will be used
+   272: mip =     not found yet >=              -inf        (1; 0)
+   792: >>>>>  -2.235567686e+00 >=  -2.235912832e+00 < 0.1% (511; 0)
+   793: >>>>>  -2.235912832e+00 >=  -2.235912832e+00 < 0.1% (1; 511)
+   793: mip =  -2.235912832e+00 >=     tree is empty   0.0% (0; 1021)
INTEGER OPTIMAL SOLUTION FOUND
Time used:   0.8 secs
Memory used: 3.4 Mb (3598657 bytes)
